l=3097;
a=5;
setup_costs=[|5,5,5,5,5,
|5,5,5,5,5,
|5,5,5,5,5,
|5,5,5,5,5,
|5,5,5,5,5,
|0,0,0,0,0|];
setup_times=[|11,11,11,11,11,
|11,11,11,11,11,
|11,11,11,11,11,
|11,11,11,11,11,
|11,11,11,11,11,
|0,0,0,0,0|];
m=5;
min_cap=[0,0,0,0,0];
max_cap=[76,49,57,79,88];

initState=[5,5,5,1,2];
s=4;
m_a_s = [|0,1476,1539,2821,
|440,1956,2196,2515,
|0,1650,2538,2618,
|0,0,2172,2353,
|0,0,117,804|];
m_a_e = [|0,1510,1905,2912,
|1300,2143,2326,2913,
|0,2436,2611,2778,
|0,0,2232,2835,
|0,0,623,1387|];
n=10;
eligible_machine = [{3,1},
{1,5},
{2,1,5},
{2,3},
{3,4},
{2},
{2,3,4,5},
{4,1,2,3,5},
{3,1,2,4,5},
{2,1,3,4}];
earliest_start=[11,51,9,45,21,53,34,16,22,38];
latest_end=[46,145,162,138,114,82,157,99,187,140];
min_time=[33,67,91,89,51,23,72,63,95,67];
max_time=[100,100,100,100,100,100,100,100,100,100];
size=[8,20,2,19,18,13,13,14,11,20];
attribute=[3,4,2,4,4,2,3,3,2,1];

upper_bound_integer_objective=16500;
mult_factor_total_runtime=10;
mult_factor_finished_toolate=660;
mult_factor_total_setuptimes=0;
mult_factor_total_setupcosts=66;
running_time_bound=651;
min_duration=23;
max_duration=95;
max_setup_time=11;
max_setup_cost=5;
